c Grid graph 3x8
p edge 24 37
e 1 2
e 1 9
e 2 3
e 2 10
e 3 4
e 3 11
e 4 5
e 4 12
e 5 6
e 5 13
e 6 7
e 6 14
e 7 8
e 7 15
e 8 16
e 9 10
e 9 17
e 10 11
e 10 18
e 11 12
e 11 19
e 12 13
e 12 20
e 13 14
e 13 21
e 14 15
e 14 22
e 15 16
e 15 23
e 16 24
e 17 18
e 18 19
e 19 20
e 20 21
e 21 22
e 22 23
e 23 24
